
Gurobi 9.5.2 (mac64[x86]) logging started Wed Feb 22 18:24:57 2023

Set parameter LogFile to value "logFiles/A-1L-60D/A-1L-6U-11F-7V-60D-a-basic.log"
Gurobi Optimizer version 9.5.2 build v9.5.2rc0 (mac64[x86])
Thread count: 4 physical cores, 8 logical processors, using up to 8 threads
Optimize a model with 5250 rows, 45943 columns and 377217 nonzeros
Model fingerprint: 0xd7ae2602
Variable types: 620 continuous, 45323 integer (45323 binary)
Coefficient statistics:
  Matrix range     [1e+00, 2e+05]
  Objective range  [4e+01, 2e+07]
  Bounds range     [1e+00, 1e+00]
  RHS range        [1e+00, 5e+05]
Presolve removed 2701 rows and 7493 columns
Presolve time: 1.19s
Presolved: 2549 rows, 38450 columns, 280009 nonzeros
Variable types: 609 continuous, 37841 integer (37837 binary)

Root relaxation: objective 2.191064e+08, 5573 iterations, 1.07 seconds (1.05 work units)

    Nodes    |    Current Node    |     Objective Bounds      |     Work
 Expl Unexpl |  Obj  Depth IntInf | Incumbent    BestBd   Gap | It/Node Time

     0     0 2.1911e+08    0   71          - 2.1911e+08      -     -    2s
H    0     0                    2.125805e+08 2.1911e+08  3.07%     -    8s
     0     0 2.1779e+08    0   64 2.1258e+08 2.1779e+08  2.45%     -    9s
H    0     0                    2.137371e+08 2.1779e+08  1.90%     -   17s
     0     0 2.1779e+08    0   63 2.1374e+08 2.1779e+08  1.90%     -   17s
     0     0 2.1779e+08    0   60 2.1374e+08 2.1779e+08  1.90%     -   17s
H    0     0                    2.138087e+08 2.1779e+08  1.86%     -   20s
     0     0 2.1779e+08    0   59 2.1381e+08 2.1779e+08  1.86%     -   21s
     0     0 2.1779e+08    0   60 2.1381e+08 2.1779e+08  1.86%     -   21s
     0     0 2.1779e+08    0   73 2.1381e+08 2.1779e+08  1.86%     -   21s
     0     0 2.1779e+08    0   74 2.1381e+08 2.1779e+08  1.86%     -   21s
     0     0 2.1779e+08    0   70 2.1381e+08 2.1779e+08  1.86%     -   22s
     0     0 2.1779e+08    0   72 2.1381e+08 2.1779e+08  1.86%     -   22s
     0     0 2.1779e+08    0   80 2.1381e+08 2.1779e+08  1.86%     -   22s
     0     0 2.1779e+08    0   74 2.1381e+08 2.1779e+08  1.86%     -   22s
     0     0 2.1779e+08    0   76 2.1381e+08 2.1779e+08  1.86%     -   22s
     0     0 2.1779e+08    0   79 2.1381e+08 2.1779e+08  1.86%     -   22s
     0     0 2.1779e+08    0   80 2.1381e+08 2.1779e+08  1.86%     -   23s
     0     0 2.1779e+08    0   80 2.1381e+08 2.1779e+08  1.86%     -   23s
     0     0 2.1779e+08    0   80 2.1381e+08 2.1779e+08  1.86%     -   23s
     0     0 2.1779e+08    0   67 2.1381e+08 2.1779e+08  1.86%     -   23s
     0     0 2.1779e+08    0   72 2.1381e+08 2.1779e+08  1.86%     -   23s
     0     0 2.1779e+08    0   69 2.1381e+08 2.1779e+08  1.86%     -   24s
     0     0 2.1779e+08    0   69 2.1381e+08 2.1779e+08  1.86%     -   25s
     0     0 2.1779e+08    0   74 2.1381e+08 2.1779e+08  1.86%     -   27s
H    0     0                    2.147745e+08 2.1779e+08  1.40%     -   30s
     0     0 2.1777e+08    0   79 2.1477e+08 2.1777e+08  1.40%     -   31s
     0     0 2.1775e+08    0   43 2.1477e+08 2.1775e+08  1.38%     -   36s
     0     0 2.1775e+08    0   49 2.1477e+08 2.1775e+08  1.38%     -   36s
     0     0 2.1775e+08    0   54 2.1477e+08 2.1775e+08  1.38%     -   36s
     0     0 2.1775e+08    0   48 2.1477e+08 2.1775e+08  1.38%     -   37s
     0     0 2.1775e+08    0   50 2.1477e+08 2.1775e+08  1.38%     -   37s
     0     0 2.1775e+08    0   49 2.1477e+08 2.1775e+08  1.38%     -   37s
     0     0 2.1775e+08    0   64 2.1477e+08 2.1775e+08  1.38%     -   38s
     0     0 2.1775e+08    0   65 2.1477e+08 2.1775e+08  1.38%     -   38s
     0     0 2.1775e+08    0   78 2.1477e+08 2.1775e+08  1.38%     -   38s
     0     0 2.1775e+08    0   73 2.1477e+08 2.1775e+08  1.38%     -   39s
     0     0 2.1775e+08    0   78 2.1477e+08 2.1775e+08  1.38%     -   41s
H    0     0                    2.147745e+08 2.1775e+08  1.38%     -   43s
     0     0 2.1775e+08    0   72 2.1477e+08 2.1775e+08  1.38%     -   44s
H    0     0                    2.149002e+08 2.1775e+08  1.33%     -   48s
H    0     0                    2.150042e+08 2.1775e+08  1.28%     -   48s
     0     0 2.1774e+08    0   71 2.1500e+08 2.1774e+08  1.27%     -   49s
     0     0 2.1774e+08    0   71 2.1500e+08 2.1774e+08  1.27%     -   49s
     0     0 2.1774e+08    0   72 2.1500e+08 2.1774e+08  1.27%     -   49s
     0     0 2.1774e+08    0   76 2.1500e+08 2.1774e+08  1.27%     -   49s
     0     0 2.1774e+08    0   78 2.1500e+08 2.1774e+08  1.27%     -   49s
     0     0 2.1774e+08    0   79 2.1500e+08 2.1774e+08  1.27%     -   49s
     0     0 2.1774e+08    0   80 2.1500e+08 2.1774e+08  1.27%     -   50s
     0     0 2.1774e+08    0   76 2.1500e+08 2.1774e+08  1.27%     -   50s
     0     0 2.1774e+08    0   76 2.1500e+08 2.1774e+08  1.27%     -   50s
     0     0 2.1774e+08    0   76 2.1500e+08 2.1774e+08  1.27%     -   50s
     0     0 2.1774e+08    0   74 2.1500e+08 2.1774e+08  1.27%     -   51s
     0     2 2.1774e+08    0   73 2.1500e+08 2.1774e+08  1.27%     -   51s
    27    30 2.1774e+08    9   51 2.1500e+08 2.1774e+08  1.27%  67.1   55s
H   30    30                    2.150930e+08 2.1774e+08  1.23%  64.3   55s
   113   120 2.1772e+08   24   52 2.1509e+08 2.1774e+08  1.23%  33.0   62s
H  195   213                    2.150930e+08 2.1774e+08  1.23%  26.8   66s
H  209   213                    2.151096e+08 2.1774e+08  1.22%  25.8   66s
   519   522 2.1763e+08  131   46 2.1511e+08 2.1774e+08  1.22%  20.9   70s
H  591   526                    2.152795e+08 2.1774e+08  1.14%  18.8   74s
H  595   530                    2.152795e+08 2.1774e+08  1.14%  18.6   78s
H  597   530                    2.152965e+08 2.1774e+08  1.13%  18.6   78s
   715   699 2.1763e+08  181   43 2.1530e+08 2.1774e+08  1.13%  16.5   80s
  1413  1325 2.1760e+08  401   36 2.1530e+08 2.1774e+08  1.13%  10.2   85s
  2010  1689 2.1759e+08  545   41 2.1530e+08 2.1774e+08  1.13%   9.3   92s
H 2012  1689                    2.152965e+08 2.1774e+08  1.13%   9.3   92s
  2233  1936 2.1758e+08  599   35 2.1530e+08 2.1774e+08  1.13%   9.4   95s
  3153  2730 2.1756e+08  772   34 2.1530e+08 2.1774e+08  1.13%   8.8  100s
  3965  3347 2.1753e+08  936   32 2.1530e+08 2.1774e+08  1.13%   8.5  105s
  4756  3942 2.1739e+08 1079   38 2.1530e+08 2.1774e+08  1.13%   8.3  110s
  5114  3943 2.1763e+08   56   69 2.1530e+08 2.1774e+08  1.13%   8.5  116s
  5117  3945 2.1716e+08  834   50 2.1530e+08 2.1774e+08  1.13%   8.5  121s
  5128  3952 2.1747e+08  256   75 2.1530e+08 2.1747e+08  1.01%   8.4  125s
  5145  3964 2.1620e+08   29   81 2.1530e+08 2.1745e+08  1.00%   8.4  130s
  5162  3975 2.1744e+08  394   89 2.1530e+08 2.1744e+08  1.00%   8.4  135s
H 5163  3776                    2.152965e+08 2.1744e+08  1.00%   8.4  135s
  5175  3785 2.1635e+08  530   79 2.1530e+08 2.1744e+08  1.00%  10.6  140s
  5183  3791 2.1604e+08  916   84 2.1530e+08 2.1744e+08  1.00%  10.6  147s
  5187  3793 2.1744e+08  554   90 2.1530e+08 2.1744e+08  0.99%  10.6  150s
  5199  3801 2.1744e+08  919   91 2.1530e+08 2.1744e+08  0.99%  10.6  155s
  5202  3806 2.1739e+08   21   80 2.1530e+08 2.1739e+08  0.97%  12.3  162s
  5208  3812 2.1739e+08   23   69 2.1530e+08 2.1739e+08  0.97%  12.5  165s
  5230  3823 2.1739e+08   26   64 2.1530e+08 2.1739e+08  0.97%  13.4  177s
H 5232  3631                    2.152965e+08 2.1739e+08  0.97%  13.4  177s
  5246  3646 2.1739e+08   28   64 2.1530e+08 2.1739e+08  0.97%  13.7  180s
  5307  3688 2.1739e+08   35   71 2.1530e+08 2.1739e+08  0.97%  14.9  185s
  5454  3808 2.1739e+08   46   75 2.1530e+08 2.1739e+08  0.97%  17.2  190s
  5650  3930 2.1738e+08   62   60 2.1530e+08 2.1739e+08  0.97%  19.5  195s
  5756  3968 2.1738e+08   72   56 2.1530e+08 2.1739e+08  0.97%  20.7  201s
H 5757  3785                    2.153666e+08 2.1739e+08  0.94%  20.7  201s
  5864  3901 2.1735e+08   83   51 2.1537e+08 2.1739e+08  0.94%  21.9  206s
  5921  3931 2.1735e+08   92   58 2.1537e+08 2.1739e+08  0.94%  22.4  211s
  5970  3950 2.1735e+08   95   54 2.1537e+08 2.1739e+08  0.94%  22.9  217s
  6008  3967 2.1735e+08   96   48 2.1537e+08 2.1739e+08  0.94%  23.1  224s
  6043  3987 2.1735e+08   97   48 2.1537e+08 2.1739e+08  0.94%  23.5  232s
  6132  4027 2.1717e+08  101   52 2.1537e+08 2.1739e+08  0.94%  24.6  240s
  6173  4051 2.1734e+08  104   59 2.1537e+08 2.1739e+08  0.94%  25.0  245s
  6324  4156 2.1733e+08  118   50 2.1537e+08 2.1739e+08  0.94%  26.5  251s
  6481  4209 2.1733e+08  136   49 2.1537e+08 2.1739e+08  0.94%  27.4  256s
  6550  4247 2.1725e+08  146   43 2.1537e+08 2.1739e+08  0.94%  27.8  260s
  6627  4318 2.1731e+08  159   50 2.1537e+08 2.1739e+08  0.94%  28.3  265s
  6883  4408 2.1729e+08  185   53 2.1537e+08 2.1739e+08  0.94%  28.9  278s
  6915  4503 2.1729e+08  189   50 2.1537e+08 2.1739e+08  0.94%  29.0  283s
  7028  4532 2.1729e+08  193   57 2.1537e+08 2.1739e+08  0.94%  29.3  287s
H 7061  4349                    2.153666e+08 2.1739e+08  0.94%  29.8  287s
  7097  4449 2.1729e+08  195   59 2.1537e+08 2.1739e+08  0.94%  29.8  290s
  7335  4745 2.1729e+08  198   57 2.1537e+08 2.1739e+08  0.94%  30.2  298s
  7637  4649 2.1631e+08  248   28 2.1537e+08 2.1739e+08  0.94%  30.8  300s

Cutting planes:
  Gomory: 5
  Cover: 10
  Implied bound: 6
  MIR: 20
  Flow cover: 18
  GUB cover: 2
  RLT: 1
  Relax-and-lift: 21

Explored 7641 nodes (255954 simplex iterations) in 300.04 seconds (372.74 work units)
Thread count was 8 (of 8 available processors)

Solution count 10: 2.15367e+08 2.15367e+08 2.15296e+08 ... 2.15004e+08

Time limit reached
Best objective 2.153665989801e+08, best bound 2.173944602787e+08, gap 0.9416%

Gurobi 9.5.2 (mac64[x86]) logging started Thu Feb 23 12:37:48 2023

Set parameter LogFile to value "logFiles/A-1L-60D/A-1L-6U-11F-7V-60D-a-basic.log"
Gurobi Optimizer version 9.5.2 build v9.5.2rc0 (mac64[x86])
Thread count: 4 physical cores, 8 logical processors, using up to 8 threads
Optimize a model with 5250 rows, 45943 columns and 377217 nonzeros
Model fingerprint: 0x0faebdfa
Variable types: 620 continuous, 45323 integer (45323 binary)
Coefficient statistics:
  Matrix range     [1e+00, 2e+05]
  Objective range  [4e+01, 2e+07]
  Bounds range     [1e+00, 1e+00]
  RHS range        [1e+00, 5e+05]
Presolve removed 2701 rows and 7493 columns
Presolve time: 1.57s
Presolved: 2549 rows, 38450 columns, 280009 nonzeros
Variable types: 609 continuous, 37841 integer (37837 binary)

Root relaxation: objective 2.191064e+08, 5573 iterations, 1.19 seconds (1.05 work units)

    Nodes    |    Current Node    |     Objective Bounds      |     Work
 Expl Unexpl |  Obj  Depth IntInf | Incumbent    BestBd   Gap | It/Node Time

     0     0 2.1911e+08    0   71          - 2.1911e+08      -     -    3s
H    0     0                    2.125805e+08 2.1911e+08  3.07%     -    9s
     0     0 2.1779e+08    0   64 2.1258e+08 2.1779e+08  2.45%     -   10s
H    0     0                    2.137371e+08 2.1779e+08  1.90%     -   19s
     0     0 2.1779e+08    0   63 2.1374e+08 2.1779e+08  1.90%     -   19s
     0     0 2.1779e+08    0   60 2.1374e+08 2.1779e+08  1.90%     -   20s
H    0     0                    2.138087e+08 2.1779e+08  1.86%     -   24s
     0     0 2.1779e+08    0   59 2.1381e+08 2.1779e+08  1.86%     -   24s
     0     0 2.1779e+08    0   60 2.1381e+08 2.1779e+08  1.86%     -   24s
     0     0 2.1779e+08    0   73 2.1381e+08 2.1779e+08  1.86%     -   25s
     0     0 2.1779e+08    0   74 2.1381e+08 2.1779e+08  1.86%     -   25s
     0     0 2.1779e+08    0   70 2.1381e+08 2.1779e+08  1.86%     -   25s
     0     0 2.1779e+08    0   72 2.1381e+08 2.1779e+08  1.86%     -   25s
     0     0 2.1779e+08    0   80 2.1381e+08 2.1779e+08  1.86%     -   25s
     0     0 2.1779e+08    0   74 2.1381e+08 2.1779e+08  1.86%     -   26s
     0     0 2.1779e+08    0   76 2.1381e+08 2.1779e+08  1.86%     -   26s
     0     0 2.1779e+08    0   79 2.1381e+08 2.1779e+08  1.86%     -   26s
     0     0 2.1779e+08    0   80 2.1381e+08 2.1779e+08  1.86%     -   26s
     0     0 2.1779e+08    0   80 2.1381e+08 2.1779e+08  1.86%     -   26s
     0     0 2.1779e+08    0   80 2.1381e+08 2.1779e+08  1.86%     -   27s
     0     0 2.1779e+08    0   67 2.1381e+08 2.1779e+08  1.86%     -   27s
     0     0 2.1779e+08    0   72 2.1381e+08 2.1779e+08  1.86%     -   27s
     0     0 2.1779e+08    0   69 2.1381e+08 2.1779e+08  1.86%     -   28s
     0     0 2.1779e+08    0   69 2.1381e+08 2.1779e+08  1.86%     -   29s
     0     0 2.1779e+08    0   74 2.1381e+08 2.1779e+08  1.86%     -   32s
H    0     0                    2.147745e+08 2.1779e+08  1.40%     -   36s
     0     0 2.1777e+08    0   79 2.1477e+08 2.1777e+08  1.40%     -   37s
     0     0 2.1775e+08    0   43 2.1477e+08 2.1775e+08  1.38%     -   43s
     0     0 2.1775e+08    0   49 2.1477e+08 2.1775e+08  1.38%     -   43s
     0     0 2.1775e+08    0   54 2.1477e+08 2.1775e+08  1.38%     -   43s
     0     0 2.1775e+08    0   48 2.1477e+08 2.1775e+08  1.38%     -   44s
     0     0 2.1775e+08    0   50 2.1477e+08 2.1775e+08  1.38%     -   44s
     0     0 2.1775e+08    0   49 2.1477e+08 2.1775e+08  1.38%     -   45s
     0     0 2.1775e+08    0   64 2.1477e+08 2.1775e+08  1.38%     -   45s
     0     0 2.1775e+08    0   65 2.1477e+08 2.1775e+08  1.38%     -   45s
     0     0 2.1775e+08    0   78 2.1477e+08 2.1775e+08  1.38%     -   45s
     0     0 2.1775e+08    0   73 2.1477e+08 2.1775e+08  1.38%     -   46s
     0     0 2.1775e+08    0   78 2.1477e+08 2.1775e+08  1.38%     -   48s
H    0     0                    2.147745e+08 2.1775e+08  1.38%     -   51s
     0     0 2.1775e+08    0   72 2.1477e+08 2.1775e+08  1.38%     -   51s
H    0     0                    2.149002e+08 2.1775e+08  1.33%     -   56s
H    0     0                    2.150042e+08 2.1775e+08  1.28%     -   57s
     0     0 2.1774e+08    0   71 2.1500e+08 2.1774e+08  1.27%     -   57s
     0     0 2.1774e+08    0   71 2.1500e+08 2.1774e+08  1.27%     -   57s
     0     0 2.1774e+08    0   72 2.1500e+08 2.1774e+08  1.27%     -   57s
     0     0 2.1774e+08    0   76 2.1500e+08 2.1774e+08  1.27%     -   58s
     0     0 2.1774e+08    0   78 2.1500e+08 2.1774e+08  1.27%     -   58s
     0     0 2.1774e+08    0   79 2.1500e+08 2.1774e+08  1.27%     -   58s
     0     0 2.1774e+08    0   80 2.1500e+08 2.1774e+08  1.27%     -   58s
     0     0 2.1774e+08    0   76 2.1500e+08 2.1774e+08  1.27%     -   59s
     0     0 2.1774e+08    0   76 2.1500e+08 2.1774e+08  1.27%     -   59s
     0     0 2.1774e+08    0   76 2.1500e+08 2.1774e+08  1.27%     -   59s
     0     0 2.1774e+08    0   74 2.1500e+08 2.1774e+08  1.27%     -   60s
     0     2 2.1774e+08    0   73 2.1500e+08 2.1774e+08  1.27%     -   60s
    27    30 2.1774e+08    9   51 2.1500e+08 2.1774e+08  1.27%  67.1   65s
H   30    30                    2.150930e+08 2.1774e+08  1.23%  64.3   65s
   113   120 2.1772e+08   24   52 2.1509e+08 2.1774e+08  1.23%  33.0   73s
   140   161 2.1772e+08   31   50 2.1509e+08 2.1774e+08  1.23%  29.2   75s
H  195   213                    2.150930e+08 2.1774e+08  1.23%  26.8   78s
H  209   213                    2.151096e+08 2.1774e+08  1.22%  25.8   78s
   273   293 2.1767e+08   47   45 2.1511e+08 2.1774e+08  1.22%  24.5   80s
H  591   526                    2.152795e+08 2.1774e+08  1.14%  18.8   87s
H  595   530                    2.152795e+08 2.1774e+08  1.14%  18.6   92s
H  597   530                    2.152965e+08 2.1774e+08  1.13%  18.6   92s
   981   938 2.1762e+08  276   44 2.1530e+08 2.1774e+08  1.13%  13.0   95s
  1548  1385 2.1760e+08  429   39 2.1530e+08 2.1774e+08  1.13%   9.7  100s
  2010  1689 2.1759e+08  545   41 2.1530e+08 2.1774e+08  1.13%   9.3  107s
H 2012  1689                    2.152965e+08 2.1774e+08  1.13%   9.3  107s
  2233  1936 2.1758e+08  599   35 2.1530e+08 2.1774e+08  1.13%   9.4  110s
  3153  2730 2.1756e+08  772   34 2.1530e+08 2.1774e+08  1.13%   8.8  115s
  3965  3347 2.1753e+08  936   32 2.1530e+08 2.1774e+08  1.13%   8.5  121s
  4756  3942 2.1739e+08 1079   38 2.1530e+08 2.1774e+08  1.13%   8.3  127s
  5114  3943 2.1763e+08   56   69 2.1530e+08 2.1774e+08  1.13%   8.5  133s
  5116  3944 2.1583e+08 1280   65 2.1530e+08 2.1774e+08  1.13%   8.5  135s
  5119  3946 2.1747e+08   63   76 2.1530e+08 2.1747e+08  1.01%   8.5  140s
  5132  3955 2.1746e+08  725   84 2.1530e+08 2.1746e+08  1.01%   8.4  145s
  5144  3963 2.1745e+08  330   94 2.1530e+08 2.1745e+08  1.00%   8.4  150s
  5161  3974 2.1736e+08 1172   81 2.1530e+08 2.1744e+08  1.00%   8.4  155s
H 5163  3776                    2.152965e+08 2.1744e+08  1.00%   8.4  156s
  5173  3784 2.1609e+08  194   69 2.1530e+08 2.1744e+08  1.00%  10.6  161s
  5176  3786 2.1629e+08  758   62 2.1530e+08 2.1744e+08  1.00%  10.6  167s
  5183  3791 2.1604e+08  916   84 2.1530e+08 2.1744e+08  1.00%  10.6  173s
  5185  3792 2.1732e+08  334   88 2.1530e+08 2.1744e+08  1.00%  10.6  176s
  5194  3798 2.1744e+08   10   90 2.1530e+08 2.1744e+08  0.99%  10.6  180s
  5201  3803 2.1701e+08  445   89 2.1530e+08 2.1739e+08  0.97%  10.6  187s
  5202  3806 2.1739e+08   21   80 2.1530e+08 2.1739e+08  0.97%  12.3  192s
  5204  3810 2.1739e+08   22   77 2.1530e+08 2.1739e+08  0.97%  12.3  195s
  5220  3818 2.1670e+08   24   76 2.1530e+08 2.1739e+08  0.97%  13.1  200s
  5230  3823 2.1739e+08   26   64 2.1530e+08 2.1739e+08  0.97%  13.4  217s
H 5232  3631                    2.152965e+08 2.1739e+08  0.97%  13.4  217s
  5234  3635 2.1569e+08   26   68 2.1530e+08 2.1739e+08  0.97%  13.6  220s
  5279  3667 2.1739e+08   32   64 2.1530e+08 2.1739e+08  0.97%  14.4  225s
  5361  3727 2.1739e+08   39   78 2.1530e+08 2.1739e+08  0.97%  16.0  230s
  5495  3830 2.1739e+08   49   70 2.1530e+08 2.1739e+08  0.97%  17.6  235s
  5650  3930 2.1738e+08   62   60 2.1530e+08 2.1739e+08  0.97%  19.5  240s
  5756  3968 2.1738e+08   72   56 2.1530e+08 2.1739e+08  0.97%  20.7  247s
H 5757  3785                    2.153666e+08 2.1739e+08  0.94%  20.7  247s
  5806  3865 2.1736e+08   77   70 2.1537e+08 2.1739e+08  0.94%  21.4  250s
  5921  3931 2.1735e+08   92   58 2.1537e+08 2.1739e+08  0.94%  22.4  258s
  5970  3950 2.1735e+08   95   54 2.1537e+08 2.1739e+08  0.94%  22.9  264s
  6008  3967 2.1735e+08   96   48 2.1537e+08 2.1739e+08  0.94%  23.1  270s
  6043  3987 2.1735e+08   97   48 2.1537e+08 2.1739e+08  0.94%  23.5  275s
  6132  4027 2.1717e+08  101   52 2.1537e+08 2.1739e+08  0.94%  24.6  284s
  6173  4051 2.1734e+08  104   59 2.1537e+08 2.1739e+08  0.94%  25.0  289s
  6217  4074 2.1734e+08  107   56 2.1537e+08 2.1739e+08  0.94%  25.5  291s
  6324  4156 2.1733e+08  118   50 2.1537e+08 2.1739e+08  0.94%  26.5  295s
  6481  4171 2.1733e+08  136   49 2.1537e+08 2.1739e+08  0.94%  27.4  300s

Cutting planes:
  Gomory: 5
  Cover: 10
  Implied bound: 6
  MIR: 20
  Flow cover: 18
  GUB cover: 2
  RLT: 1
  Relax-and-lift: 21

Explored 6498 nodes (199378 simplex iterations) in 300.06 seconds (310.54 work units)
Thread count was 8 (of 8 available processors)

Solution count 10: 2.15367e+08 2.15296e+08 2.15296e+08 ... 2.149e+08

Time limit reached
Best objective 2.153665988573e+08, best bound 2.173944602787e+08, gap 0.9416%
